CPXPARAM_TimeLimit                               3600
CPXPARAM_Read_DataCheck                          1
CPXPARAM_MIP_Limits_Solutions                    1
Tried aggregator 1 time.
MIP Presolve eliminated 1405 rows and 0 columns.
MIP Presolve modified 2476 coefficients.
Reduced MIP has 70130 rows, 22276 columns, and 251613 nonzeros.
Reduced MIP has 1575 binaries, 0 generals, 0 SOSs, and 0 indicators.
Presolve time = 0.06 sec. (89.33 ticks)
Found incumbent of value 8943.000000 after 0.12 sec. (162.46 ticks)

Root node processing (before b&c):
  Real time             =    0.12 sec. (163.55 ticks)
Parallel b&c, 8 threads:
  Real time             =    0.00 sec. (0.00 ticks)
  Sync time (average)   =    0.00 sec.
  Wait time (average)   =    0.00 sec.
                          ------------
Total (root+branch&cut) =    0.12 sec. (163.55 ticks)
